p tw 413 819
0 2
0 3
1 6
1 5
1 23
1 22
1 40
1 39
1 57
1 56
1 74
1 73
1 91
1 90
1 108
1 107
1 125
1 124
1 142
1 141
1 159
1 158
1 176
1 175
1 193
1 192
1 210
1 209
1 227
1 226
1 244
1 243
1 261
1 260
1 278
1 277
1 295
1 294
1 312
1 311
1 329
1 328
1 346
1 345
1 363
1 362
1 380
1 379
1 397
1 396
2 3
3 7
3 15
4 8
4 9
4 10
4 5
4 11
4 21
4 18
5 6
5 10
5 11
7 15
7 16
7 14
8 12
8 9
9 12
10 13
10 11
11 13
12 14
12 13
13 14
14 16
15 19
15 20
16 18
16 17
17 18
18 21
19 20
20 24
20 32
21 25
21 26
21 27
21 22
21 28
21 38
21 35
22 23
22 27
22 28
24 32
24 33
24 31
25 29
25 26
26 29
27 30
27 28
28 30
29 31
29 30
30 31
31 33
32 36
32 37
33 35
33 34
34 35
35 38
36 37
37 41
37 49
38 42
38 43
38 44
38 39
38 45
38 55
38 52
39 40
39 44
39 45
41 49
41 50
41 48
42 46
42 43
43 46
44 47
44 45
45 47
46 48
46 47
47 48
48 50
49 53
49 54
50 52
50 51
51 52
52 55
53 54
54 58
54 66
55 59
55 60
55 61
55 56
55 62
55 72
55 69
56 57
56 61
56 62
58 66
58 67
58 65
59 63
59 60
60 63
61 64
61 62
62 64
63 65
63 64
64 65
65 67
66 70
66 71
67 69
67 68
68 69
69 72
70 71
71 75
71 83
72 76
72 77
72 78
72 73
72 79
72 89
72 86
73 74
73 78
73 79
75 83
75 84
75 82
76 80
76 77
77 80
78 81
78 79
79 81
80 82
80 81
81 82
82 84
83 87
83 88
84 86
84 85
85 86
86 89
87 88
88 92
88 100
89 93
89 94
89 95
89 90
89 96
89 106
89 103
90 91
90 95
90 96
92 100
92 101
92 99
93 97
93 94
94 97
95 98
95 96
96 98
97 99
97 98
98 99
99 101
100 104
100 105
101 103
101 102
102 103
103 106
104 105
105 109
105 117
106 110
106 111
106 112
106 107
106 113
106 123
106 120
107 108
107 112
107 113
109 117
109 118
109 116
110 114
110 111
111 114
112 115
112 113
113 115
114 116
114 115
115 116
116 118
117 121
117 122
118 120
118 119
119 120
120 123
121 122
122 126
122 134
123 127
123 128
123 129
123 124
123 130
123 140
123 137
124 125
124 129
124 130
126 134
126 135
126 133
127 131
127 128
128 131
129 132
129 130
130 132
131 133
131 132
132 133
133 135
134 138
134 139
135 137
135 136
136 137
137 140
138 139
139 143
139 151
140 144
140 145
140 146
140 141
140 147
140 157
140 154
141 142
141 146
141 147
143 151
143 152
143 150
144 148
144 145
145 148
146 149
146 147
147 149
148 150
148 149
149 150
150 152
151 155
151 156
152 154
152 153
153 154
154 157
155 156
156 160
156 168
157 161
157 162
157 163
157 158
157 164
157 174
157 171
158 159
158 163
158 164
160 168
160 169
160 167
161 165
161 162
162 165
163 166
163 164
164 166
165 167
165 166
166 167
167 169
168 172
168 173
169 171
169 170
170 171
171 174
172 173
173 177
173 185
174 178
174 179
174 180
174 175
174 181
174 191
174 188
175 176
175 180
175 181
177 185
177 186
177 184
178 182
178 179
179 182
180 183
180 181
181 183
182 184
182 183
183 184
184 186
185 189
185 190
186 188
186 187
187 188
188 191
189 190
190 194
190 202
191 195
191 196
191 197
191 192
191 198
191 208
191 205
192 193
192 197
192 198
194 202
194 203
194 201
195 199
195 196
196 199
197 200
197 198
198 200
199 201
199 200
200 201
201 203
202 206
202 207
203 205
203 204
204 205
205 208
206 207
207 211
207 219
208 212
208 213
208 214
208 209
208 215
208 225
208 222
209 210
209 214
209 215
211 219
211 220
211 218
212 216
212 213
213 216
214 217
214 215
215 217
216 218
216 217
217 218
218 220
219 223
219 224
220 222
220 221
221 222
222 225
223 224
224 228
224 236
225 229
225 230
225 231
225 226
225 232
225 242
225 239
226 227
226 231
226 232
228 236
228 237
228 235
229 233
229 230
230 233
231 234
231 232
232 234
233 235
233 234
234 235
235 237
236 240
236 241
237 239
237 238
238 239
239 242
240 241
241 245
241 253
242 246
242 247
242 248
242 243
242 249
242 259
242 256
243 244
243 248
243 249
245 253
245 254
245 252
246 250
246 247
247 250
248 251
248 249
249 251
250 252
250 251
251 252
252 254
253 257
253 258
254 256
254 255
255 256
256 259
257 258
258 262
258 270
259 263
259 264
259 265
259 260
259 266
259 276
259 273
260 261
260 265
260 266
262 270
262 271
262 269
263 267
263 264
264 267
265 268
265 266
266 268
267 269
267 268
268 269
269 271
270 274
270 275
271 273
271 272
272 273
273 276
274 275
275 279
275 287
276 280
276 281
276 282
276 277
276 283
276 293
276 290
277 278
277 282
277 283
279 287
279 288
279 286
280 284
280 281
281 284
282 285
282 283
283 285
284 286
284 285
285 286
286 288
287 291
287 292
288 290
288 289
289 290
290 293
291 292
292 296
292 304
293 297
293 298
293 299
293 294
293 300
293 310
293 307
294 295
294 299
294 300
296 304
296 305
296 303
297 301
297 298
298 301
299 302
299 300
300 302
301 303
301 302
302 303
303 305
304 308
304 309
305 307
305 306
306 307
307 310
308 309
309 313
309 321
310 314
310 315
310 316
310 311
310 317
310 327
310 324
311 312
311 316
311 317
313 321
313 322
313 320
314 318
314 315
315 318
316 319
316 317
317 319
318 320
318 319
319 320
320 322
321 325
321 326
322 324
322 323
323 324
324 327
325 326
326 330
326 338
327 331
327 332
327 333
327 328
327 334
327 344
327 341
328 329
328 333
328 334
330 338
330 339
330 337
331 335
331 332
332 335
333 336
333 334
334 336
335 337
335 336
336 337
337 339
338 342
338 343
339 341
339 340
340 341
341 344
342 343
343 347
343 355
344 348
344 349
344 350
344 345
344 351
344 361
344 358
345 346
345 350
345 351
347 355
347 356
347 354
348 352
348 349
349 352
350 353
350 351
351 353
352 354
352 353
353 354
354 356
355 359
355 360
356 358
356 357
357 358
358 361
359 360
360 364
360 372
361 365
361 366
361 367
361 362
361 368
361 378
361 375
362 363
362 367
362 368
364 372
364 373
364 371
365 369
365 366
366 369
367 370
367 368
368 370
369 371
369 370
370 371
371 373
372 376
372 377
373 375
373 374
374 375
375 378
376 377
377 381
377 389
378 382
378 383
378 384
378 379
378 385
378 395
378 392
379 380
379 384
379 385
381 389
381 390
381 388
382 386
382 383
383 386
384 387
384 385
385 387
386 388
386 387
387 388
388 390
389 393
389 394
390 392
390 391
391 392
392 395
393 394
394 398
394 406
395 399
395 400
395 401
395 396
395 402
395 412
395 409
396 397
396 401
396 402
398 406
398 407
398 405
399 403
399 400
400 403
401 404
401 402
402 404
403 405
403 404
404 405
405 407
406 410
406 411
407 409
407 408
408 409
409 412
410 411
